; SWAP2 SWAP1 SWAP2 OR SWAP1 PUSH cw_1 => PUSH cw_1 SWAP3 OR SWAP2
(set-option :produce-proofs true)
; 
(set-info :status unknown)
(declare-fun storage_t ((_ BitVec 256) (_ BitVec 256) (_ BitVec 256) (_ BitVec 256) Int (_ BitVec 256)) (_ BitVec 256))
(declare-fun w_1 () (_ BitVec 256))
(declare-fun storage_s ((_ BitVec 256) (_ BitVec 256) (_ BitVec 256) (_ BitVec 256) Int (_ BitVec 256)) (_ BitVec 256))
(declare-fun exc_halt_t (Int) Bool)
(declare-fun exc_halt_s (Int) Bool)
(declare-fun stack_t ((_ BitVec 256) (_ BitVec 256) (_ BitVec 256) (_ BitVec 256) Int (_ BitVec 6)) (_ BitVec 256))
(declare-fun stack_s ((_ BitVec 256) (_ BitVec 256) (_ BitVec 256) (_ BitVec 256) Int (_ BitVec 6)) (_ BitVec 256))
(declare-fun sc_t (Int) (_ BitVec 6))
(declare-fun sc_s (Int) (_ BitVec 6))
(declare-fun used_gas_t ((_ BitVec 256) (_ BitVec 256) (_ BitVec 256) (_ BitVec 256) Int) Int)
(declare-fun used_gas_s ((_ BitVec 256) (_ BitVec 256) (_ BitVec 256) (_ BitVec 256) Int) Int)
(assert
 (exists ((x_0 (_ BitVec 256)) (x_1 (_ BitVec 256)) (x_2 (_ BitVec 256)) )(let (($x8537 (forall ((w (_ BitVec 256)) )(let ((?x3093 (storage_t x_0 x_1 x_2 w_1 4 w)))
 (let ((?x2232 (storage_s x_0 x_1 x_2 w_1 6 w)))
 (= ?x2232 ?x3093))))
 ))
 (let (($x7722 (exc_halt_t 4)))
 (let (($x772 (exc_halt_s 6)))
 (let (($x5620 (= $x772 $x7722)))
 (let (($x1277 (forall ((n (_ BitVec 6)) )(let ((?x3159 (stack_t x_0 x_1 x_2 w_1 4 n)))
 (let ((?x7316 (stack_s x_0 x_1 x_2 w_1 6 n)))
 (let (($x7124 (= ?x7316 ?x3159)))
 (or (bvsle (sc_t 4) n) $x7124)))))
 ))
 (let ((?x11631 (sc_t 4)))
 (let ((?x926 (sc_s 6)))
 (let (($x11559 (= ?x926 ?x11631)))
 (let ((?x1005 (used_gas_t x_0 x_1 x_2 w_1 0)))
 (let ((?x11839 (used_gas_s x_0 x_1 x_2 w_1 0)))
 (let (($x9145 (= ?x11839 ?x1005)))
 (let (($x7691 (forall ((w (_ BitVec 256)) )(let ((?x4666 (storage_t x_0 x_1 x_2 w_1 0 w)))
 (let ((?x528 (storage_s x_0 x_1 x_2 w_1 0 w)))
 (= ?x528 ?x4666))))
 ))
 (let (($x56 (exc_halt_t 0)))
 (let (($x57 (exc_halt_s 0)))
 (let (($x58 (= $x57 $x56)))
 (let (($x9976 (forall ((n (_ BitVec 6)) )(let ((?x8292 (stack_t x_0 x_1 x_2 w_1 0 n)))
 (let ((?x6172 (stack_s x_0 x_1 x_2 w_1 0 n)))
 (let (($x5604 (= ?x6172 ?x8292)))
 (let ((?x63 (sc_t 0)))
 (let (($x5499 (bvsle ?x63 n)))
 (or $x5499 $x5604)))))))
 ))
 (let ((?x63 (sc_t 0)))
 (let ((?x72 (sc_s 0)))
 (let (($x73 (= ?x72 ?x63)))
 (let (($x5503 (= $x7722 (or (exc_halt_t 3) (not (bvsle (_ bv0 6) (bvadd (_ bv61 6) (sc_t 3))))))))
 (let (($x10741 (forall ((w (_ BitVec 256)) )(let ((?x1789 (storage_t x_0 x_1 x_2 w_1 3 w)))
 (let ((?x3093 (storage_t x_0 x_1 x_2 w_1 4 w)))
 (= ?x3093 ?x1789))))
 ))
 (let (($x2960 (forall ((n (_ BitVec 6)) )(let ((?x3616 (stack_t x_0 x_1 x_2 w_1 3 n)))
 (let ((?x3159 (stack_t x_0 x_1 x_2 w_1 4 n)))
 (or (= ?x3159 ?x3616) (bvsle (bvadd (_ bv61 6) (sc_t 3)) n)))))
 ))
 (let ((?x6438 (sc_t 3)))
 (let (($x9281 (= ?x11631 ?x6438)))
 (let (($x10825 (= (used_gas_t x_0 x_1 x_2 w_1 4) (+ 3 (used_gas_t x_0 x_1 x_2 w_1 3)))))
 (let (($x2735 (= (stack_t x_0 x_1 x_2 w_1 4 (bvadd (_ bv62 6) ?x11631)) (stack_t x_0 x_1 x_2 w_1 3 (bvadd (_ bv62 6) ?x6438)))))
 (let ((?x7970 (bvadd (_ bv63 6) ?x6438)))
 (let ((?x7833 (stack_t x_0 x_1 x_2 w_1 3 ?x7970)))
 (let (($x1106 (= (stack_t x_0 x_1 x_2 w_1 4 (bvadd (_ bv63 6) ?x11631)) (stack_t x_0 x_1 x_2 w_1 3 (bvadd (_ bv61 6) ?x6438)))))
 (let (($x6783 (exc_halt_t 3)))
 (let (($x10807 (= $x6783 (or (exc_halt_t 2) (not (bvsle (_ bv0 6) (bvadd (_ bv62 6) (sc_t 2))))))))
 (let (($x2294 (forall ((w (_ BitVec 256)) )(let ((?x11574 (storage_t x_0 x_1 x_2 w_1 2 w)))
 (let ((?x1789 (storage_t x_0 x_1 x_2 w_1 3 w)))
 (= ?x1789 ?x11574))))
 ))
 (let (($x8724 (forall ((n (_ BitVec 6)) )(let ((?x6913 (stack_t x_0 x_1 x_2 w_1 2 n)))
 (let ((?x3616 (stack_t x_0 x_1 x_2 w_1 3 n)))
 (or (= ?x3616 ?x6913) (bvsle (bvadd (_ bv62 6) (sc_t 2)) n)))))
 ))
 (let ((?x2714 (sc_t 2)))
 (let ((?x9853 (bvadd (_ bv63 6) ?x2714)))
 (let (($x2433 (= ?x6438 ?x9853)))
 (let ((?x9027 (used_gas_t x_0 x_1 x_2 w_1 3)))
 (let ((?x1572 (bvadd (_ bv62 6) ?x2714)))
 (let ((?x11299 (stack_t x_0 x_1 x_2 w_1 2 ?x1572)))
 (let ((?x9195 (stack_t x_0 x_1 x_2 w_1 2 ?x9853)))
 (let (($x2163 (exc_halt_t 2)))
 (let (($x7407 (= $x2163 (or (exc_halt_t 1) (not (bvsle (_ bv0 6) (bvadd (_ bv60 6) (sc_t 1))))))))
 (let (($x4900 (forall ((w (_ BitVec 256)) )(let ((?x7221 (storage_t x_0 x_1 x_2 w_1 1 w)))
 (let ((?x11574 (storage_t x_0 x_1 x_2 w_1 2 w)))
 (= ?x11574 ?x7221))))
 ))
 (let (($x11298 (forall ((n (_ BitVec 6)) )(let ((?x8347 (sc_t 1)))
 (let ((?x5009 (bvadd (_ bv60 6) ?x8347)))
 (let (($x9863 (bvsle ?x5009 n)))
 (let ((?x10416 (stack_t x_0 x_1 x_2 w_1 1 n)))
 (let ((?x6913 (stack_t x_0 x_1 x_2 w_1 2 n)))
 (or (= ?x6913 ?x10416) $x9863)))))))
 ))
 (let ((?x8347 (sc_t 1)))
 (let (($x5957 (= ?x2714 ?x8347)))
 (let ((?x7336 (used_gas_t x_0 x_1 x_2 w_1 2)))
 (let (($x2656 (= (stack_t x_0 x_1 x_2 w_1 2 (bvadd (_ bv61 6) ?x2714)) (stack_t x_0 x_1 x_2 w_1 1 (bvadd (_ bv61 6) ?x8347)))))
 (let (($x407 (= (stack_t x_0 x_1 x_2 w_1 2 (bvadd (_ bv60 6) ?x2714)) (stack_t x_0 x_1 x_2 w_1 1 (bvadd (_ bv63 6) ?x8347)))))
 (let (($x3508 (exc_halt_t 1)))
 (let (($x1609 (= $x3508 (or $x56 (not (= ((_ extract 6 6) (bvadd (_ bv1 7) (concat (_ bv0 1) ?x63))) (_ bv0 1)))))))
 (let (($x4821 (forall ((w (_ BitVec 256)) )(let ((?x4666 (storage_t x_0 x_1 x_2 w_1 0 w)))
 (let ((?x7221 (storage_t x_0 x_1 x_2 w_1 1 w)))
 (= ?x7221 ?x4666))))
 ))
 (let (($x4461 (forall ((n (_ BitVec 6)) )(let ((?x63 (sc_t 0)))
 (let (($x5499 (bvsle ?x63 n)))
 (let ((?x8292 (stack_t x_0 x_1 x_2 w_1 0 n)))
 (let ((?x10416 (stack_t x_0 x_1 x_2 w_1 1 n)))
 (or (= ?x10416 ?x8292) $x5499))))))
 ))
 (let (($x11604 (= ?x8347 (bvadd (_ bv1 6) ?x63))))
 (let (($x5197 (not (= ((_ extract 6 6) (bvadd (_ bv1 7) (concat (_ bv0 1) (sc_s 5)))) (_ bv0 1)))))
 (let (($x11317 (exc_halt_s 5)))
 (let (($x1901 (forall ((w (_ BitVec 256)) )(let ((?x8999 (storage_s x_0 x_1 x_2 w_1 5 w)))
 (let ((?x2232 (storage_s x_0 x_1 x_2 w_1 6 w)))
 (= ?x2232 ?x8999))))
 ))
 (let (($x10409 (forall ((n (_ BitVec 6)) )(let ((?x2783 (stack_s x_0 x_1 x_2 w_1 5 n)))
 (let ((?x7316 (stack_s x_0 x_1 x_2 w_1 6 n)))
 (or (bvsle (sc_s 5) n) (= ?x7316 ?x2783)))))
 ))
 (let (($x10936 (= ?x926 (bvadd (_ bv1 6) (sc_s 5)))))
 (let (($x10454 (= (used_gas_s x_0 x_1 x_2 w_1 6) (+ 3 (used_gas_s x_0 x_1 x_2 w_1 5)))))
 (let (($x705 (= $x11317 (or (exc_halt_s 4) (not (bvsle (_ bv0 6) (bvadd (_ bv62 6) (sc_s 4))))))))
 (let (($x8311 (forall ((w (_ BitVec 256)) )(let ((?x6578 (storage_s x_0 x_1 x_2 w_1 4 w)))
 (let ((?x8999 (storage_s x_0 x_1 x_2 w_1 5 w)))
 (= ?x8999 ?x6578))))
 ))
 (let (($x4639 (forall ((n (_ BitVec 6)) )(let ((?x1579 (stack_s x_0 x_1 x_2 w_1 4 n)))
 (let ((?x2783 (stack_s x_0 x_1 x_2 w_1 5 n)))
 (let ((?x4305 (sc_s 4)))
 (let ((?x3389 (bvadd (_ bv62 6) ?x4305)))
 (let (($x1231 (bvsle ?x3389 n)))
 (or $x1231 (= ?x2783 ?x1579))))))))
 ))
 (let ((?x4305 (sc_s 4)))
 (let ((?x4319 (sc_s 5)))
 (let (($x11171 (= ?x4319 ?x4305)))
 (let ((?x8986 (used_gas_s x_0 x_1 x_2 w_1 5)))
 (let ((?x6745 (bvadd (_ bv63 6) ?x4305)))
 (let ((?x4963 (stack_s x_0 x_1 x_2 w_1 4 ?x6745)))
 (let (($x4807 (= (stack_s x_0 x_1 x_2 w_1 5 (bvadd (_ bv63 6) ?x4319)) (stack_s x_0 x_1 x_2 w_1 4 (bvadd (_ bv62 6) ?x4305)))))
 (let (($x7172 (exc_halt_s 4)))
 (let (($x4712 (= $x7172 (or (exc_halt_s 3) (not (bvsle (_ bv0 6) (bvadd (_ bv62 6) (sc_s 3))))))))
 (let (($x2055 (forall ((w (_ BitVec 256)) )(let ((?x5773 (storage_s x_0 x_1 x_2 w_1 3 w)))
 (let ((?x6578 (storage_s x_0 x_1 x_2 w_1 4 w)))
 (= ?x6578 ?x5773))))
 ))
 (let (($x4212 (forall ((n (_ BitVec 6)) )(let ((?x10273 (stack_s x_0 x_1 x_2 w_1 3 n)))
 (let ((?x1579 (stack_s x_0 x_1 x_2 w_1 4 n)))
 (or (bvsle (bvadd (_ bv62 6) (sc_s 3)) n) (= ?x1579 ?x10273)))))
 ))
 (let ((?x2994 (used_gas_s x_0 x_1 x_2 w_1 4)))
 (let ((?x275 (sc_s 3)))
 (let ((?x1922 (bvadd (_ bv62 6) ?x275)))
 (let ((?x9410 (stack_s x_0 x_1 x_2 w_1 3 ?x1922)))
 (let ((?x891 (bvadd (_ bv63 6) ?x275)))
 (let ((?x11223 (stack_s x_0 x_1 x_2 w_1 3 ?x891)))
 (let (($x292 (exc_halt_s 3)))
 (let (($x4914 (= $x292 (or (exc_halt_s 2) (not (bvsle (_ bv0 6) (bvadd (_ bv61 6) (sc_s 2))))))))
 (let (($x6166 (forall ((w (_ BitVec 256)) )(let ((?x7928 (storage_s x_0 x_1 x_2 w_1 2 w)))
 (let ((?x5773 (storage_s x_0 x_1 x_2 w_1 3 w)))
 (= ?x5773 ?x7928))))
 ))
 (let (($x6642 (forall ((n (_ BitVec 6)) )(let ((?x1421 (stack_s x_0 x_1 x_2 w_1 2 n)))
 (let ((?x10273 (stack_s x_0 x_1 x_2 w_1 3 n)))
 (or (bvsle (bvadd (_ bv61 6) (sc_s 2)) n) (= ?x10273 ?x1421)))))
 ))
 (let ((?x2411 (used_gas_s x_0 x_1 x_2 w_1 3)))
 (let ((?x218 (sc_s 2)))
 (let ((?x6986 (bvadd (_ bv62 6) ?x218)))
 (let ((?x9810 (stack_s x_0 x_1 x_2 w_1 2 ?x6986)))
 (let ((?x8766 (bvadd (_ bv63 6) ?x218)))
 (let ((?x5983 (stack_s x_0 x_1 x_2 w_1 2 ?x8766)))
 (let (($x247 (exc_halt_s 2)))
 (let (($x11325 (= $x247 (or (exc_halt_s 1) (not (bvsle (_ bv0 6) (bvadd (_ bv62 6) (sc_s 1))))))))
 (let (($x11527 (forall ((w (_ BitVec 256)) )(let ((?x10173 (storage_s x_0 x_1 x_2 w_1 1 w)))
 (let ((?x7928 (storage_s x_0 x_1 x_2 w_1 2 w)))
 (= ?x7928 ?x10173))))
 ))
 (let (($x4485 (forall ((n (_ BitVec 6)) )(let ((?x10341 (stack_s x_0 x_1 x_2 w_1 1 n)))
 (let ((?x1421 (stack_s x_0 x_1 x_2 w_1 2 n)))
 (or (= ?x1421 ?x10341) (bvsle (bvadd (_ bv62 6) (sc_s 1)) n)))))
 ))
 (let ((?x154 (sc_s 1)))
 (let (($x11011 (= ?x218 ?x154)))
 (let ((?x10288 (used_gas_s x_0 x_1 x_2 w_1 2)))
 (let (($x189 (exc_halt_s 1)))
 (let (($x422 (= $x189 (or $x57 (not (bvsle (_ bv0 6) (bvadd (_ bv61 6) ?x72)))))))
 (let (($x801 (forall ((w (_ BitVec 256)) )(let ((?x528 (storage_s x_0 x_1 x_2 w_1 0 w)))
 (let ((?x10173 (storage_s x_0 x_1 x_2 w_1 1 w)))
 (= ?x10173 ?x528))))
 ))
 (let (($x1107 (forall ((n (_ BitVec 6)) )(let ((?x6172 (stack_s x_0 x_1 x_2 w_1 0 n)))
 (let ((?x10341 (stack_s x_0 x_1 x_2 w_1 1 n)))
 (let ((?x72 (sc_s 0)))
 (let ((?x8826 (bvadd (_ bv61 6) ?x72)))
 (let (($x7037 (bvsle ?x8826 n)))
 (or $x7037 (= ?x10341 ?x6172))))))))
 ))
 (let (($x9237 (= ?x154 ?x72)))
 (let ((?x2681 (bvadd (_ bv62 6) ?x154)))
 (let ((?x5910 (stack_s x_0 x_1 x_2 w_1 1 ?x2681)))
 (let (($x7646 (= (stack_s x_0 x_1 x_2 w_1 1 (bvadd (_ bv61 6) ?x154)) (stack_s x_0 x_1 x_2 w_1 0 (bvadd (_ bv63 6) ?x72)))))
 (let ((?x7271 (bvadd (_ bv63 6) ?x154)))
 (let ((?x10893 (stack_s x_0 x_1 x_2 w_1 1 ?x7271)))
 (let (($x6237 (forall ((w (_ BitVec 256)) )(let ((?x528 (storage_s x_0 x_1 x_2 w_1 0 w)))
 (= ?x528 (_ bv0 256))))
 ))
 (let (($x10296 (= ?x11839 0)))
 (let (($x11443 (not $x57)))
 (let (($x7678 (= (stack_s x_0 x_1 x_2 w_1 0 (_ bv2 6)) x_2)))
 (let (($x1824 (= (stack_s x_0 x_1 x_2 w_1 0 (_ bv1 6)) x_1)))
 (let (($x10043 (= (stack_s x_0 x_1 x_2 w_1 0 (_ bv0 6)) x_0)))
 (let (($x5315 (= ?x72 (_ bv3 6))))
 (and $x5315 $x10043 $x1824 $x7678 $x11443 $x10296 $x6237 (= ?x10893 (stack_s x_0 x_1 x_2 w_1 0 (bvadd (_ bv61 6) ?x72))) $x7646 (= ?x5910 (stack_s x_0 x_1 x_2 w_1 0 (bvadd (_ bv62 6) ?x72))) (= (used_gas_s x_0 x_1 x_2 w_1 1) (+ 3 ?x11839)) $x9237 $x1107 $x801 $x422 (= ?x5983 ?x5910) (= ?x9810 ?x10893) (= ?x10288 (+ 3 (used_gas_s x_0 x_1 x_2 w_1 1))) $x11011 $x4485 $x11527 $x11325 (= ?x11223 (stack_s x_0 x_1 x_2 w_1 2 (bvadd (_ bv61 6) ?x218))) (= (stack_s x_0 x_1 x_2 w_1 3 (bvadd (_ bv61 6) ?x275)) ?x5983) (= ?x9410 ?x9810) (= ?x2411 (+ 3 ?x10288)) (= ?x275 ?x218) $x6642 $x6166 $x4914 (= ?x4963 (bvor ?x11223 ?x9410)) (= ?x2994 (+ 3 ?x2411)) (= ?x4305 ?x891) $x4212 $x2055 $x4712 $x4807 (= (stack_s x_0 x_1 x_2 w_1 5 (bvadd (_ bv62 6) ?x4319)) ?x4963) (= ?x8986 (+ 3 ?x2994)) $x11171 $x4639 $x8311 $x705 (= (stack_s x_0 x_1 x_2 w_1 6 ?x4319) w_1) $x10454 $x10936 $x10409 $x1901 (= $x772 (or $x11317 $x5197)) (= (stack_t x_0 x_1 x_2 w_1 1 ?x63) w_1) (= (used_gas_t x_0 x_1 x_2 w_1 1) (+ 3 ?x1005)) $x11604 $x4461 $x4821 $x1609 (= ?x9195 (stack_t x_0 x_1 x_2 w_1 1 (bvadd (_ bv60 6) ?x8347))) $x407 $x2656 (= ?x11299 (stack_t x_0 x_1 x_2 w_1 1 (bvadd (_ bv62 6) ?x8347))) (= ?x7336 (+ 3 (used_gas_t x_0 x_1 x_2 w_1 1))) $x5957 $x11298 $x4900 $x7407 (= ?x7833 (bvor ?x9195 ?x11299)) (= ?x9027 (+ 3 ?x7336)) $x2433 $x8724 $x2294 $x10807 $x1106 (= (stack_t x_0 x_1 x_2 w_1 4 (bvadd (_ bv61 6) ?x11631)) ?x7833) $x2735 $x10825 $x9281 $x2960 $x10741 $x5503 $x73 $x9976 $x58 $x7691 $x9145 (not (and $x11559 $x1277 $x5620 $x8537))))))))))))))))))))))))))))))))))))))))))))))))))))))))))))))))))))))))))))))))))))))))))))))))))))))))))))))))))))))
 )
(check-sat)
(get-proof)
